
Gurobi 9.5.2 (win64) logging started Mon Mar 27 20:28:26 2023

Set parameter LogFile to value "2023-03-27_20hr-25min-09sec/Nodes40_Arcs65_LocNodes30/Formulation-2Instance-1.log"
Set parameter TimeLimit to value 600
Set parameter IntFeasTol to value 1e-09
Set parameter DualReductions to value 0
Set parameter NonConvex to value 2
Gurobi Optimizer version 9.5.2 build v9.5.2rc0 (win64)
Thread count: 4 physical cores, 8 logical processors, using up to 8 threads
Optimize a model with 176 rows, 310 columns and 670 nonzeros
Model fingerprint: 0x53ceab50
Model has 105 quadratic objective terms
Model has 105 SOS constraints
Variable types: 280 continuous, 30 integer (30 binary)
Coefficient statistics:
  Matrix range     [2e-02, 2e+02]
  Objective range  [2e-02, 1e+03]
  QObjective range [4e-02, 8e+00]
  Bounds range     [1e+00, 1e+00]
  RHS range        [2e-02, 3e+03]
Presolve removed 32 rows and 46 columns
Presolve time: 0.00s
Presolved: 144 rows, 264 columns, 548 nonzeros
Presolved model has 83 SOS constraint(s)
Presolved model has 83 quadratic objective terms
Variable types: 234 continuous, 30 integer (30 binary)

Root relaxation: objective 8.854373e+05, 352 iterations, 0.00 seconds (0.00 work units)

    Nodes    |    Current Node    |     Objective Bounds      |     Work
 Expl Unexpl |  Obj  Depth IntInf | Incumbent    BestBd   Gap | It/Node Time

     0     0 885437.343    0   15          - 885437.343      -     -    0s
H    0     0                    867457.87110 885437.343  2.07%     -    0s
H    0     0                    875809.26586 885437.343  1.10%     -    0s
     0     0 885112.859    0   17 875809.266 885112.859  1.06%     -    0s
H    0     0                    877351.01988 885112.859  0.88%     -    0s
     0     0 885112.859    0   17 877351.020 885112.859  0.88%     -    0s
     0     0 884770.654    0   15 877351.020 884770.654  0.85%     -    0s
     0     0 883995.932    0   21 877351.020 883995.932  0.76%     -    0s
     0     0 883710.883    0   20 877351.020 883710.883  0.72%     -    0s
     0     0 883391.660    0   20 877351.020 883391.660  0.69%     -    0s
     0     0 883278.896    0   20 877351.020 883278.896  0.68%     -    0s
H    0     0                    877957.97123 883278.896  0.61%     -    0s
H    0     0                    883248.40828 883278.896  0.00%     -    0s

Cutting planes:
  Gomory: 1
  Cover: 3
  Implied bound: 1
  MIR: 2
  Flow cover: 11
  RLT: 1

Explored 1 nodes (706 simplex iterations) in 0.14 seconds (0.03 work units)
Thread count was 8 (of 8 available processors)

Solution count 5: 883248 877958 877351 ... 867458

Optimal solution found (tolerance 1.00e-04)
Best objective 8.832484082768e+05, best bound 8.832558485974e+05, gap 0.0008%

User-callback calls 361, time in user-callback 0.00 sec
